RAW/XY/fspd-mid/X-n162-k11.vrp_seed-2.out
11774	74.186	162.745
